000 000 000 000 -99 -99 000 000 -99 -99 -99 -99 -99 -99 000 000 000 000 000 000 000 001 001 002 002 001 000 001 003 002 001
-99 -99 -99 000 000 000 000 000 000 -99 -99 -99 -99 -99 000 000 000 000 000 000 001 000 001 001 002 001 002 001 005 004 003
-99 -99 -99 000 000 000 000 000 000 000 -99 -99 -99 000 000 000 -99 -99 000 000 001 000 001 001 003 003 002 003 002 006 007
000 -99 000 000 000 000 000 000 000 001 000 000 000 000 000 -99 -99 -99 000 000 001 000 001 001 001 002 002 007 011 018 028
000 000 000 000 000 000 000 000 000 000 000 000 000 000 000 000 -99 -99 000 000 001 000 001 001 001 003 005 007 033 022 050
000 000 000 000 000 000 000 000 000 000 000 000 000 000 000 000 -99 -99 000 000 000 000 000 000 000 001 004 008 038 026 052
000 000 000 000 000 000 000 000 000 000 000 000 000 000 000 000 000 -99 000 000 000 000 000 000 000 000 -99 012 020 023 025
000 000 000 000 000 000 000 000 000 000 000 000 000 000 000 000 000 000 000 -99 000 000 000 000 000 000 -99 010 013 010 018
000 000 000 000 000 000 000 000 000 000 000 000 -99 -99 -99 000 000 000 -99 -99 000 -99 -99 000 000 -99 000 000 003 003 009
000 000 000 000 000 000 000 000 000 000 000 000 -99 -99 -99 000 000 000 000 -99 000 000 -99 -99 000 000 000 000 001 000 001
000 000 000 000 000 000 000 000 000 000 000 000 -99 -99 000 000 000 000 000 -99 -99 000 -99 -99 000 -99 000 000 000 000 001
000 000 000 000 000 000 000 000 000 000 000 000 -99 -99 000 000 000 000 000 000 -99 000 -99 000 000 -99 000 000 000 000 000
000 000 000 000 000 000 000 000 000 000 000 000 000 -99 -99 000 000 000 000 000 000 000 -99 000 000 000 000 000 000 000 000
000 000 000 000 000 000 000 000 000 000 000 000 000 000 000 000 000 -99 000 000 000 000 -99 000 000 000 000 000 000 000 000
000 -99 000 000 000 000 000 000 000 000 000 000 000 000 000 000 000 000 000 000 000 000 -99 000 000 000 000 000 000 001 000
000 -99 000 000 000 000 000 000 000 000 000 000 000 000 000 000 000 000 000 000 -99 000 -99 000 000 000 000 000 000 001 001
-99 000 000 000 -99 000 000 000 000 000 000 000 000 000 000 000 000 000 000 -99 -99 -99 000 000 000 000 000 000 000 000 001
000 000 000 000 000 -99 000 000 000 000 000 000 000 000 000 000 000 000 000 -99 -99 000 000 000 000 000 000 000 000 000 001
000 000 000 000 -99 -99 000 000 000 000 000 000 000 000 000 000 000 000 000 -99 000 000 000 -99 000 000 000 000 -99 001 001
000 000 000 000 000 000 000 000 000 000 000 000 000 000 000 000 000 000 000 000 000 000 000 -99 -99 000 000 -99 -99 001 001
000 000 000 000 000 000 000 000 000 000 000 000 000 000 000 000 000 000 000 000 000 000 000 -99 -99 -99 001 -99 -99 -99 -99
000 000 000 000 000 000 000 000 000 000 000 000 000 000 000 000 000 000 000 000 000 000 000 -99 -99 -99 001 -99 029 039 035
000 000 000 000 000 000 000 000 000 000 000 000 000 000 000 000 000 000 000 000 000 000 000 -99 -99 -99 -99 -99 018 068 047
000 000 000 000 000 000 000 000 000 000 000 000 000 000 000 000 000 000 000 000 000 000 000 -99 -99 -99 -99 015 018 096 060
000 000 000 000 000 000 000 000 000 000 000 000 000 000 000 000 000 000 000 000 000 000 000 -99 -99 -99 -99 016 027 055 058
000 000 000 000 000 000 000 000 001 000 000 000 000 000 000 000 000 000 000 000 000 000 000 -99 -99 -99 -99 017 033 039 061
000 000 000 000 000 000 000 000 001 000 000 000 000 000 000 000 000 000 000 000 000 000 000 -99 -99 -99 -99 016 021 018 029
000 000 000 000 000 000 000 000 001 000 000 000 000 001 001 000 000 000 000 000 000 000 000 -99 -99 -99 017 015 014 018 021
000 000 000 000 000 000 000 000 000 000 000 000 000 001 002 001 000 000 000 000 000 000 -99 -99 -99 -99 017 010 011 013 013
000 000 000 000 000 000 000 000 000 001 000 000 000 001 002 001 000 000 000 000 000 000 -99 -99 -99 -99 -99 004 005 010 010
000 000 000 000 000 000 000 000 001 001 000 000 000 001 001 001 000 000 001 001 000 000 -99 000 000 -99 -99 002 003 006 005
-99 000 000 000 000 000 000 000 000 001 001 000 000 001 001 001 000 001 002 001 000 000 000 000 000 -99 -99 -99 -99 003 003
000 000 000 000 000 000 000 000 000 001 001 001 001 001 001 001 001 001 002 001 002 001 000 000 000 -99 -99 000 000 000 002
000 000 000 000 000 000 000 000 000 000 001 001 001 001 001 001 001 001 002 001 002 001 000 000 000 000 -99 000 000 000 001
000 000 000 000 000 000 000 000 000 000 001 001 001 001 001 000 001 002 002 002 002 002 001 000 000 000 000 000 000 000 001
000 000 000 000 000 000 000 000 000 000 000 001 001 002 002 001 001 001 001 002 003 003 001 001 001 001 000 000 000 000 000
000 000 000 000 000 000 000 000 000 000 000 000 001 002 001 001 001 001 002 003 004 004 002 002 002 001 001 000 000 000 000
000 000 000 000 000 000 000 000 000 000 000 000 002 001 001 001 001 000 002 003 005 008 004 004 003 002 002 001 002 000 000
000 000 000 000 000 000 000 -99 000 000 000 000 000 001 001 001 000 001 003 003 006 011 006 008 003 003 004 002 001 001 000
000 000 000 000 000 000 000 000 000 000 000 000 001 002 001 001 000 001 003 004 006 014 005 006 005 005 008 005 003 001 000
000 000 000 000 000 000 000 000 000 000 000 000 001 002 001 001 001 002 003 005 015 017 013 011 013 018 014 011 009 004 003
000 000 000 000 000 000 000 000 000 000 000 001 001 002 002 001 001 001 003 006 013 013 018 012 033 033 039 043 050 026 007
000 000 000 000 000 000 000 000 000 000 001 001 001 002 002 003 003 002 002 005 006 016 014 016 050 052 038 064 078 058 028
000 000 000 000 000 000 000 000 000 000 001 001 001 001 003 005 003 002 004 006 007 016 018 014 045 048 052 042 050 042 015
000 000 000 000 000 000 000 000 000 000 001 002 001 001 004 007 006 002 006 022 012 019 016 018 023 034 024 022 031 031 011
001 000 000 000 000 000 000 000 000 000 001 002 002 003 004 010 006 003 013 019 021 021 028 015 023 016 010 004 010 004 012
000 000 000 000 000 000 000 000 000 000 001 001 002 001 005 014 008 006 016 028 015 039 024 021 069 034 005 001 001 002 003
000 000 000 000 000 000 000 000 002 001 000 001 002 002 003 009 010 010 016 017 010 036 021 042 061 027 001 000 000 001 001
000 000 000 000 000 000 000 000 002 002 002 001 003 002 004 007 014 020 017 012 005 010 025 054 053 008 000 000 000 000 -99
-99 -99 000 -99 000 000 000 001 003 005 003 002 002 002 001 007 031 024 019 008 004 005 021 013 009 002 000 000 000 000 -99
-99 -99 -99 -99 -99 000 000 001 002 005 003 001 002 001 002 009 039 031 023 013 003 004 004 002 001 001 000 -99 000 -99 -99
-99 -99 -99 -99 -99 000 001 002 003 002 003 001 001 000 001 010 028 031 025 009 001 001 002 001 000 -99 -99 -99 -99 -99 -99
-99 -99 -99 -99 000 000 001 003 002 002 002 004 002 001 000 004 018 018 012 005 001 000 001 001 -99 -99 -99 -99 -99 -99 -99
-99 -99 -99 -99 000 000 001 005 006 004 005 007 007 001 001 002 013 009 007 004 000 000 000 -99 -99 -99 -99 -99 -99 -99 -99
-99 -99 -99 -99 000 000 001 004 012 007 009 006 002 002 001 001 003 007 008 004 001 000 -99 -99 -99 -99 -99 -99 -99 -99 -99
